NAME : X_30_seed_123_id_0
TYPE : CVRP
DIMENSION : 237
EDGE_WEIGHT_TYPE : EUC_2D
CAPACITY : 18
NODE_COORD_SECTION
1	0	0
2	510	365
3	382	322
4	988	98
5	742	17
6	595	106
7	123	569
8	214	737
9	96	113
10	638	47
11	73	544
12	942	224
13	111	409
14	339	846
15	253	420
16	608	208
17	68	817
18	823	451
19	2	340
20	39	322
21	596	559
22	504	957
23	176	135
24	873	99
25	380	860
26	180	358
27	865	213
28	630	862
29	411	290
30	993	588
31	680	899
32	106	837
33	576	843
34	418	826
35	394	790
36	717	146
37	484	271
38	411	765
39	158	180
40	582	365
41	371	154
42	720	390
43	782	255
44	244	359
45	971	950
46	967	129
47	555	186
48	357	695
49	537	434
50	980	824
51	305	780
52	530	465
53	513	51
54	940	885
55	745	304
56	56	987
57	945	342
58	515	67
59	139	661
60	473	615
61	489	354
62	3	907
63	259	755
64	222	262
65	265	87
66	14	998
67	467	889
68	198	140
69	438	539
70	806	401
71	957	878
72	842	867
73	628	99
74	193	815
75	493	16
76	645	360
77	109	86
78	46	271
79	315	296
80	409	301
81	433	768
82	419	925
83	385	979
84	836	926
85	903	861
86	486	60
87	321	884
88	766	972
89	323	812
90	819	647
91	998	88
92	966	141
93	412	364
94	319	340
95	932	631
96	496	480
97	377	424
98	472	884
99	762	959
100	58	493
101	77	8
102	206	390
103	65	222
104	198	552
105	887	970
106	76	460
107	665	490
108	635	497
109	135	781
110	428	763
111	257	759
112	681	206
113	440	471
114	575	481
115	515	17
116	88	750
117	215	197
118	609	562
119	357	130
120	658	814
121	557	953
122	931	530
123	475	686
124	950	503
125	73	977
126	574	707
127	651	410
128	92	459
129	906	899
130	557	634
131	442	187
132	407	281
133	795	441
134	622	507
135	259	611
136	718	341
137	955	502
138	432	312
139	983	855
140	612	900
141	325	112
142	312	572
143	649	194
144	997	673
145	69	636
146	393	207
147	251	540
148	322	10
149	740	771
150	944	771
151	791	731
152	695	290
153	293	305
154	855	853
155	665	401
156	186	194
157	301	10
158	136	757
159	992	281
160	355	579
161	627	321
162	519	454
163	867	225
164	679	978
165	220	422
166	901	137
167	168	489
168	324	506
169	215	744
170	405	601
171	818	932
172	44	604
173	995	339
174	337	999
175	383	108
176	573	872
177	247	759
178	14	974
179	535	830
180	924	629
181	592	752
182	238	152
183	126	143
184	945	464
185	639	494
186	596	747
187	751	218
188	885	516
189	149	544
190	423	385
191	866	106
192	466	615
193	858	359
194	419	570
195	934	769
196	488	436
197	913	173
198	790	510
199	53	985
200	330	495
201	896	803
202	881	83
203	350	583
204	39	855
205	501	851
206	886	334
207	29	19
208	293	1
209	133	361
210	81	675
211	589	25
212	609	629
213	477	454
214	442	413
215	593	405
216	144	286
217	439	464
218	158	12
219	602	467
220	400	92
221	550	354
222	519	618
223	165	14
224	625	640
225	480	642
226	998	37
227	943	62
228	445	526
229	61	892
230	361	81
231	549	222
232	403	442
233	6	868
234	986	583
235	845	241
236	846	966
237	224	563
DEMAND_SECTION
1	0
2	1
3	1
4	1
5	1
6	1
7	1
8	1
9	1
10	1
11	1
12	1
13	1
14	1
15	1
16	1
17	1
18	1
19	1
20	1
21	1
22	1
23	1
24	1
25	1
26	1
27	1
28	1
29	1
30	1
31	1
32	1
33	1
34	1
35	1
36	1
37	1
38	1
39	1
40	1
41	1
42	1
43	1
44	1
45	1
46	1
47	1
48	1
49	1
50	1
51	1
52	1
53	1
54	1
55	1
56	1
57	1
58	1
59	1
60	1
61	1
62	1
63	1
64	1
65	1
66	1
67	1
68	1
69	1
70	1
71	1
72	1
73	1
74	1
75	1
76	1
77	1
78	1
79	1
80	1
81	1
82	1
83	1
84	1
85	1
86	1
87	1
88	1
89	1
90	1
91	1
92	1
93	1
94	1
95	1
96	1
97	1
98	1
99	1
100	1
101	1
102	1
103	1
104	1
105	1
106	1
107	1
108	1
109	1
110	1
111	1
112	1
113	1
114	1
115	1
116	1
117	1
118	1
119	1
120	1
121	1
122	1
123	1
124	1
125	1
126	1
127	1
128	1
129	1
130	1
131	1
132	1
133	1
134	1
135	1
136	1
137	1
138	1
139	1
140	1
141	1
142	1
143	1
144	1
145	1
146	1
147	1
148	1
149	1
150	1
151	1
152	1
153	1
154	1
155	1
156	1
157	1
158	1
159	1
160	1
161	1
162	1
163	1
164	1
165	1
166	1
167	1
168	1
169	1
170	1
171	1
172	1
173	1
174	1
175	1
176	1
177	1
178	1
179	1
180	1
181	1
182	1
183	1
184	1
185	1
186	1
187	1
188	1
189	1
190	1
191	1
192	1
193	1
194	1
195	1
196	1
197	1
198	1
199	1
200	1
201	1
202	1
203	1
204	1
205	1
206	1
207	1
208	1
209	1
210	1
211	1
212	1
213	1
214	1
215	1
216	1
217	1
218	1
219	1
220	1
221	1
222	1
223	1
224	1
225	1
226	1
227	1
228	1
229	1
230	1
231	1
232	1
233	1
234	1
235	1
236	1
237	1
DEPOT_SECTION
1
-1
EOF
